nServices=10;
nDrivers=10;
nBuses=10;
startTime=[89 151 89 4 58 188 22 117 46 117];
durationTime=[19 17 21 13 21 27 12 21 25 18];
durationDist=[42 60 47 51 24 41 47 29 27 40];
passangers=[12 5 21 9 11 22 22 16 7 4];
capacity=[20 18 24 19 15 11 29 17 20 21];
costTime=[6 9 10 10 6 8 8 9 6 9];
costDist=[3 3 2 2 3 6 3 6 3 4];
maxTime=[59 37 20 41 36 54 49 32 30 51];
costBM=[5 6 7 8 7 6 7 7 5 8];
costEM=[11 11 12 9 12 8 10 11 11 8];
BM=[19 17 13 14 14 17 10 15 16 16];
